500
[50,51,52,53,57,58,61,64,65,67,68,70,71,75,76,78,79,80,81,82,83,84,86,89,90,91,92,93,94,95,96,97,98,100,103,104,106,107,108,110,111,112,114,115,117,119,121,123,124,125,127,132,133,136,139,140,143,144,145,146,147,150,152,153,154,155,157,159,161,162,163,164,165,166,167,168,169,172,174,179,182,183,184,185,187,188,189,192,193,194,195,196,197,198,201,202,203,204,205,208,209,211,214,215,216,217,219,221,222,223,225,226,227,228,229,230,231,233,235,236,237,238,240,241,242,243,244,248,249,250,251,252,254,257,259,260,261,262,264,266,272,273,274,275,276,279,281,283,284,285,286,287,288,289,290,293,297,298,299,301,306,309,310,312,314,316,317,318,319,320,322,323,324,325,326,327,328,332,333,335,337,338,339,345,346,348,349,350]
[2,2,1,1,1,1,2,1,2,2,1,1,1,1,4,1,1,3,4,4,1,1,1,2,1,1,1,1,1,3,1,1,2,2,2,1,1,1,1,1,3,1,1,1,2,2,2,2,1,5,1,3,1,1,2,1,1,1,1,1,1,1,2,2,1,2,2,2,1,1,1,1,1,2,1,1,2,3,2,1,1,1,1,1,1,1,1,2,2,3,1,3,2,1,1,1,2,1,2,2,1,1,1,1,2,3,3,2,1,1,1,3,1,3,1,2,1,1,1,1,1,1,2,3,1,1,1,2,1,2,1,2,1,1,4,1,1,2,1,2,2,2,1,3,1,1,1,2,2,1,1,1,1,2,2,1,2,1,2,3,2,3,2,3,2,1,3,1,3,1,2,2,3,1,2,2,2,3,1,2,2,1,1,1,1,2,1,1]
